experiment/data/hgs-res/Vrp-Set-Golden-n361/Vrp-Set-Golden-n361-hgs/0.hgs1.tour
Route #1: 223 283 342 343 344 310 349 250 284 224 164
Route #2: 48 49 108 109 70 104 10 44 43 42
Route #3: 168 228 288 347 348 289 190 229 130 169
Route #4: 5 65 125 185 218 158 98 38
Route #5: 47 107 167 227 278 287 338 305 245 285 230 225 170 165
Route #6: 51 52 11 117 71 171 111 110 105 50 45
Route #7: 290 345 350 351 352 311 357 251 292 291 231
Route #8: 57 177 237 296 355 356 297 191 232 131 172 112
Route #9: 46 55 106 115 166 126 66 6
Route #10: 53 113 118 173 178 233 186 246 286 235 226 175 56
Route #11: 119 179 238 293 298 353 306 346 295 236 176 116
Route #12: 180 240 300 252 317 312 360 359 358 299 239
Route #13: 58 59 60 12 120 72 77 76 17 16
Route #14: 136 196 256 315 316 257 192 197 132 137
Route #15: 1 61 121 181 234 174 114 54
Route #16: 15 75 135 195 294 255 354 301 241 253 198 193 138 133
Route #17: 19 20 7 80 67 139 79 78 73 18 13
Route #18: 199 259 260 247 325 307 320 319 318 313 258
Route #19: 140 200 187 265 324 323 264 205 127 145 85 25
Route #20: 2 62 122 134 83 74 23 14
Route #21: 21 81 86 141 146 201 182 242 254 203 194 143 24
Route #22: 84 144 204 263 314 302 321 266 261 206 147 87
Route #23: 148 208 268 248 333 308 328 327 326 267 207
Route #24: 26 27 28 8 88 68 93 92 33 32
Route #25: 153 128 213 188 273 332 331 272 212 152
Route #26: 22 82 142 202 183 123 63 3
Route #27: 149 154 209 214 269 243 303 322 271 262 211 151 91 31
Route #28: 29 34 89 94 95 155 69 101 9 36 35
Route #29: 274 329 334 335 336 309 341 249 276 275 215
Route #30: 41 161 221 280 339 340 281 189 216 129 156 96
Route #31: 4 64 124 150 99 90 39 30
Route #32: 37 97 102 157 162 217 184 244 270 219 210 159 40
Route #33: 103 163 222 277 282 337 304 330 279 220 160 100
Cost 1366.07
